66
Time limit set to 60 seconds
Running CP solver
/home/omastto1/General-Optimization-Solver/src/solvers/mmrcpsp.py:42(stream:108:6): Warning: Cumulative expression 'pulse': height is zero, expression is zero everywhere.
                                                                                               VarCumulAtom_149 = pulse(task_0_mode_0, 0)
/home/omastto1/General-Optimization-Solver/src/solvers/mmrcpsp.py:42(stream:108:1254): Warning: Cumulative expression 'pulse': height is zero, expression is zero everywhere.
                                                                                                  VarCumulAtom_198 = pulse(task_17_mode_0, 0)
/home/omastto1/General-Optimization-Solver/src/solvers/mmrcpsp.py:42(stream:109:6): Warning: Cumulative expression 'pulse': height is zero, expression is zero everywhere.
                                                                                               VarCumulAtom_202 = pulse(task_0_mode_0, 0)
/home/omastto1/General-Optimization-Solver/src/solvers/mmrcpsp.py:42(stream:109:1252): Warning: Cumulative expression 'pulse': height is zero, expression is zero everywhere.
                                                                                                  VarCumulAtom_251 = pulse(task_17_mode_0, 0)
 ! --------------------------------------------------- CP Optimizer 20.1.0.0 --
 ! Minimization problem - 69 variables, 51 constraints
 ! TimeLimit            = 60
 ! Workers              = 14
 ! LogVerbosity         = Terse
 ! Initial process time : 0.01s (0.01s extraction + 0.00s propagation)
 !  . Log search space  : 159.4 (before), 159.4 (after)
 !  . Memory usage      : 754.6 kB (before), 754.6 kB (after)
 ! Using parallel search with 14 workers.
 ! ----------------------------------------------------------------------------
 !          Best Branches  Non-fixed    W       Branch decision
                        0         69                 -
 + New bound is 16
 ! Using iterative diving.
 ! Using temporal relaxation.
 *            28       44  0.58s        1      (gap is 42.86%)
 *            27       97  0.58s        1      (gap is 40.74%)
 *            23      157  0.58s        1      (gap is 30.43%)
 *            22      225  0.58s        1      (gap is 27.27%)
 *            20      318  0.58s        1      (gap is 20.00%)
 *            19      360  0.58s        1      (gap is 15.79%)
 *            17     2044  0.58s        1      (gap is 5.88%)
 *            16     2555  0.58s        3      (gap is 0.00%)
 ! ----------------------------------------------------------------------------
 ! Search completed, 8 solutions found.
 ! Best objective         : 16 (optimal - effective tol. is 0)
 ! Best bound             : 16
 ! ----------------------------------------------------------------------------
 ! Number of branches     : 70829
 ! Number of fails        : 12367
 ! Total memory usage     : 9.7 MB (9.6 MB CP Optimizer + 0.1 MB Concert)
 ! Time spent in solve    : 0.64s (0.63s engine + 0.01s extraction)
 ! Search speed (br. / s) : 114240.3
 ! ----------------------------------------------------------------------------
task_0: (start=0, end=0, size=0, length=0)
Task 0 is scheduled in mode 0 from 0 to 0
task_1: (start=0, end=1, size=1, length=1)
Task 1 is scheduled in mode 0 from 0 to 1
task_2: (start=1, end=6, size=5, length=5)
Task 2 is scheduled in mode 1 from 1 to 6
task_3: (start=0, end=1, size=1, length=1)
Task 3 is scheduled in mode 1 from 0 to 1
task_4: (start=6, end=11, size=5, length=5)
Task 4 is scheduled in mode 2 from 6 to 11
task_5: (start=1, end=3, size=2, length=2)
Task 5 is scheduled in mode 0 from 1 to 3
task_6: (start=3, end=5, size=2, length=2)
Task 6 is scheduled in mode 0 from 3 to 5
task_7: (start=5, end=12, size=7, length=7)
Task 7 is scheduled in mode 2 from 5 to 12
task_8: (start=12, end=13, size=1, length=1)
Task 8 is scheduled in mode 0 from 12 to 13
task_9: (start=3, end=8, size=5, length=5)
Task 9 is scheduled in mode 1 from 3 to 8
task_10: (start=6, end=12, size=6, length=6)
Task 10 is scheduled in mode 2 from 6 to 12
task_11: (start=8, end=13, size=5, length=5)
Task 11 is scheduled in mode 2 from 8 to 13
task_12: (start=8, end=10, size=2, length=2)
Task 12 is scheduled in mode 2 from 8 to 10
task_13: (start=11, end=14, size=3, length=3)
Task 13 is scheduled in mode 1 from 11 to 14
task_14: (start=14, end=15, size=1, length=1)
Task 14 is scheduled in mode 0 from 14 to 15
task_15: (start=13, end=16, size=3, length=3)
Task 15 is scheduled in mode 0 from 13 to 16
task_16: (start=14, end=16, size=2, length=2)
Task 16 is scheduled in mode 0 from 14 to 16
task_17: (start=16, end=16, size=0, length=0)
Task 17 is scheduled in mode 0 from 16 to 16
Optimal solution found
Objective value: 16
Solution is optimal.
